NAME : mEgtspf.pid13926.gtsp.149061426.tour
COMMENT : Length = 149061426
COMMENT : Found by LKH [Keld Helsgaun] Tue Mar 18 18:10:54 2025
TYPE : TOUR
DIMENSION : 90
TOUR_SECTION
1
28
29
30
27
80
81
82
79
10
73
74
71
72
68
69
70
67
7
2
89
90
87
88
53
54
51
52
44
45
46
43
9
8
11
12
13
14
36
37
38
35
33
34
31
32
63
64
65
66
20
21
22
19
6
5
78
75
76
77
40
41
42
39
24
25
26
23
55
56
57
58
4
47
48
49
50
16
17
18
15
84
85
86
83
59
60
61
62
3
-1
EOF
